N = 30;
M = 66;
Edge_Start = [1, 1, 2, 3, 3, 4, 5, 5, 6, 7, 9, 9, 10, 11, 12, 13, 13, 14, 15, 16, 16, 18, 18, 19, 20, 21, 22, 22, 24, 25, 26, 27, 28, 2, 8, 3, 4, 10, 5, 6, 12, 7, 14, 10, 17, 11, 12, 13, 14, 21, 15, 23, 17, 24, 19, 26, 20, 28, 22, 23, 30, 25, 26, 27, 28, 29];
Edge_End = [2, 8, 3, 4, 10, 5, 6, 12, 7, 14, 10, 17, 11, 12, 13, 14, 21, 15, 23, 17, 24, 19, 26, 20, 28, 22, 23, 30, 25, 26, 27, 28, 29, 1, 1, 2, 3, 3, 4, 5, 5, 6, 7, 9, 9, 10, 11, 12, 13, 13, 14, 15, 16, 16, 18, 18, 19, 20, 21, 22, 22, 24, 25, 26, 27, 28];
L = [1, 1, 1, 1, 1, 1, 1, 1, 1, 1, 1, 1, 1, 1, 1, 1, 1, 1, 1, 1, 1, 1, 1, 1, 1, 1, 1, 1, 1, 1, 1, 1, 1, 1, 1, 1, 1, 1, 1, 1, 1, 1, 1, 1, 1, 1, 1, 1, 1, 1, 1, 1, 1, 1, 1, 1, 1, 1, 1, 1, 1, 1, 1, 1, 1, 1];
T = [1, 1, 1, 1, 1, 1, 1, 1, 1, 1, 1, 1, 1, 1, 1, 1, 1, 1, 1, 1, 1, 1, 1, 1, 1, 1, 1, 1, 1, 1, 1, 1, 1, 1, 1, 1, 1, 1, 1, 1, 1, 1, 1, 1, 1, 1, 1, 1, 1, 1, 1, 1, 1, 1, 1, 1, 1, 1, 1, 1, 1, 1, 1, 1, 1, 1];
Lower_Bound = [0, 1, 2, 3, 4, 5, 6, 1, 4, 3, 4, 5, 6, 7, 8, 6, 5, 10, 11, 12, 7, 8, 9, 7, 8, 9, 10, 11, 12, 9];
Upper_Bound = [0, 1, 2, 3, 4, 5, 6, 1, 4, 3, 4, 5, 6, 7, 8, 6, 5, 10, 11, 12, 7, 8, 9, 7, 8, 9, 10, 11, 12, 9];
Start = 1;
End = 30;
Time = 9;
